min: c;

c = 3.45691169177382 * u2_t7_h3 + 3.40237437467646 * u2_t7_h4 + 3.32094219427881 * u2_t2_h5 + 3.32094219427881 * u2_t3_h5 + 3.32094219427881 * u2_t7_h5 + 3.86999186284685 * u2_t2_h6 + 3.86999186284685 * u2_t3_h6 + 3.86999186284685 * u2_t4_h6 + 3.86999186284685 * u2_t7_h6 + 3.86999186284685 * u2_t10_h6 + 4.20636311522058 * u2_t2_h7 + 4.20636311522058 * u2_t3_h7 + 4.20636311522058 * u2_t4_h7 + 4.20636311522058 * u2_t7_h7 + 4.20636311522058 * u2_t10_h7 + 5.57398754306493 * u2_t2_h8 + 5.57398754306493 * u2_t3_h8 + 5.57398754306493 * u2_t4_h8 + 5.57398754306493 * u2_t7_h8 + 5.57398754306493 * u2_t10_h8 + 4.80019187627004 * u2_t2_h9 + 4.80019187627004 * u2_t3_h9 + 4.80019187627004 * u2_t4_h9 + 4.80019187627004 * u2_t7_h9 + 4.80019187627004 * u2_t10_h9 + 5.11288453326342 * u2_t2_h10 + 5.11288453326342 * u2_t3_h10 + 5.11288453326342 * u2_t4_h10 + 5.11288453326342 * u2_t7_h10 + 5.11288453326342 * u2_t10_h10 + 3.52462872825933 * u2_t1_h11 + 3.52462872825933 * u2_t2_h11 + 3.52462872825933 * u2_t3_h11 + 3.52462872825933 * u2_t4_h11 + 3.52462872825933 * u2_t7_h11 + 3.52462872825933 * u2_t10_h11 + 6.5945838227744 * u2_t1_h12 + 6.5945838227744 * u2_t3_h12 + 6.5945838227744 * u2_t4_h12 + 6.5945838227744 * u2_t7_h12 + 4.48608901774641 * u2_t1_h13 + 4.48608901774641 * u2_t3_h13 + 4.48608901774641 * u2_t4_h13 + 4.48608901774641 * u2_t7_h13 + 4.48608901774641 * u2_t9_h13 + 5.39298743877051 * u2_t1_h14 + 5.39298743877051 * u2_t3_h14 + 5.39298743877051 * u2_t4_h14 + 5.39298743877051 * u2_t7_h14 + 5.39298743877051 * u2_t9_h14 + 6.11184805486147 * u2_t1_h15 + 6.11184805486147 * u2_t3_h15 + 6.11184805486147 * u2_t4_h15 + 6.11184805486147 * u2_t7_h15 + 6.11184805486147 * u2_t9_h15 + 5.41970288296053 * u2_t1_h16 + 5.41970288296053 * u2_t3_h16 + 5.41970288296053 * u2_t4_h16 + 5.41970288296053 * u2_t7_h16 + 5.41970288296053 * u2_t9_h16 + 6.59559584811664 * u2_t1_h17 + 6.59559584811664 * u2_t3_h17 + 6.59559584811664 * u2_t4_h17 + 6.59559584811664 * u2_t7_h17 + 6.59559584811664 * u2_t9_h17 + 6.50636482703784 * u2_t1_h18 + 6.50636482703784 * u2_t3_h18 + 6.50636482703784 * u2_t4_h18 + 6.50636482703784 * u2_t6_h18 + 6.50636482703784 * u2_t7_h18 + 5.96745948913791 * u2_t1_h19 + 5.96745948913791 * u2_t3_h19 + 5.96745948913791 * u2_t4_h19 + 5.96745948913791 * u2_t5_h19 + 5.96745948913791 * u2_t6_h19 + 5.96745948913791 * u2_t7_h19 + 5.46663546580134 * u2_t1_h20 + 5.46663546580134 * u2_t3_h20 + 5.46663546580134 * u2_t4_h20 + 5.46663546580134 * u2_t6_h20 + 5.46663546580134 * u2_t7_h20 + 5.31061806778933 * u2_t1_h21 + 5.31061806778933 * u2_t3_h21 + 5.31061806778933 * u2_t6_h21 + 5.31061806778933 * u2_t7_h21 + 5.31061806778933 * u2_t8_h21 + 5.29273776731031 * u2_t1_h22 + 5.29273776731031 * u2_t3_h22 + 5.29273776731031 * u2_t7_h22 + 5.29273776731031 * u2_t8_h22 + 5.91240651330332 * u2_t3_h23 + 5.91240651330332 * u2_t7_h23 + 5.91240651330332 * u2_t8_h23;
0 <= u2_t1_h11 <= 1;
0 <= u2_t1_h12 <= 1;
0 <= u2_t1_h13 <= 1;
0 <= u2_t1_h14 <= 1;
0 <= u2_t1_h15 <= 1;
0 <= u2_t1_h16 <= 1;
0 <= u2_t1_h17 <= 1;
0 <= u2_t1_h18 <= 1;
0 <= u2_t1_h19 <= 1;
0 <= u2_t1_h20 <= 1;
0 <= u2_t1_h21 <= 1;
0 <= u2_t1_h22 <= 1;
u2_t1_h11 + u2_t1_h12 + u2_t1_h13 + u2_t1_h14 + u2_t1_h15 + u2_t1_h16 + u2_t1_h17 + u2_t1_h18 + u2_t1_h19 + u2_t1_h20 + u2_t1_h21 + u2_t1_h22 = 2;
0 <= u2_t2_h5 <= 1;
0 <= u2_t2_h6 <= 1;
0 <= u2_t2_h7 <= 1;
0 <= u2_t2_h8 <= 1;
0 <= u2_t2_h9 <= 1;
0 <= u2_t2_h10 <= 1;
0 <= u2_t2_h11 <= 1;
u2_t2_h5 + u2_t2_h6 + u2_t2_h7 + u2_t2_h8 + u2_t2_h9 + u2_t2_h10 + u2_t2_h11 = 2;
0 <= u2_t3_h5 <= 1;
0 <= u2_t3_h6 <= 1;
0 <= u2_t3_h7 <= 1;
0 <= u2_t3_h8 <= 1;
0 <= u2_t3_h9 <= 1;
0 <= u2_t3_h10 <= 1;
0 <= u2_t3_h11 <= 1;
0 <= u2_t3_h12 <= 1;
0 <= u2_t3_h13 <= 1;
0 <= u2_t3_h14 <= 1;
0 <= u2_t3_h15 <= 1;
0 <= u2_t3_h16 <= 1;
0 <= u2_t3_h17 <= 1;
0 <= u2_t3_h18 <= 1;
0 <= u2_t3_h19 <= 1;
0 <= u2_t3_h20 <= 1;
0 <= u2_t3_h21 <= 1;
0 <= u2_t3_h22 <= 1;
0 <= u2_t3_h23 <= 1;
u2_t3_h5 + u2_t3_h6 + u2_t3_h7 + u2_t3_h8 + u2_t3_h9 + u2_t3_h10 + u2_t3_h11 + u2_t3_h12 + u2_t3_h13 + u2_t3_h14 + u2_t3_h15 + u2_t3_h16 + u2_t3_h17 + u2_t3_h18 + u2_t3_h19 + u2_t3_h20 + u2_t3_h21 + u2_t3_h22 + u2_t3_h23 = 1;
0 <= u2_t4_h6 <= 1;
0 <= u2_t4_h7 <= 1;
0 <= u2_t4_h8 <= 1;
0 <= u2_t4_h9 <= 1;
0 <= u2_t4_h10 <= 1;
0 <= u2_t4_h11 <= 1;
0 <= u2_t4_h12 <= 1;
0 <= u2_t4_h13 <= 1;
0 <= u2_t4_h14 <= 1;
0 <= u2_t4_h15 <= 1;
0 <= u2_t4_h16 <= 1;
0 <= u2_t4_h17 <= 1;
0 <= u2_t4_h18 <= 1;
0 <= u2_t4_h19 <= 1;
0 <= u2_t4_h20 <= 1;
u2_t4_h6 + u2_t4_h7 + u2_t4_h8 + u2_t4_h9 + u2_t4_h10 + u2_t4_h11 + u2_t4_h12 + u2_t4_h13 + u2_t4_h14 + u2_t4_h15 + u2_t4_h16 + u2_t4_h17 + u2_t4_h18 + u2_t4_h19 + u2_t4_h20 = 3;
0 <= u2_t5_h19 <= 1;
u2_t5_h19 = 1;
0 <= u2_t6_h18 <= 1;
0 <= u2_t6_h19 <= 1;
0 <= u2_t6_h20 <= 1;
0 <= u2_t6_h21 <= 1;
u2_t6_h18 + u2_t6_h19 + u2_t6_h20 + u2_t6_h21 = 2;
0 <= u2_t7_h3 <= 1;
0 <= u2_t7_h4 <= 1;
0 <= u2_t7_h5 <= 1;
0 <= u2_t7_h6 <= 1;
0 <= u2_t7_h7 <= 1;
0 <= u2_t7_h8 <= 1;
0 <= u2_t7_h9 <= 1;
0 <= u2_t7_h10 <= 1;
0 <= u2_t7_h11 <= 1;
0 <= u2_t7_h12 <= 1;
0 <= u2_t7_h13 <= 1;
0 <= u2_t7_h14 <= 1;
0 <= u2_t7_h15 <= 1;
0 <= u2_t7_h16 <= 1;
0 <= u2_t7_h17 <= 1;
0 <= u2_t7_h18 <= 1;
0 <= u2_t7_h19 <= 1;
0 <= u2_t7_h20 <= 1;
0 <= u2_t7_h21 <= 1;
0 <= u2_t7_h22 <= 1;
0 <= u2_t7_h23 <= 1;
u2_t7_h3 + u2_t7_h4 + u2_t7_h5 + u2_t7_h6 + u2_t7_h7 + u2_t7_h8 + u2_t7_h9 + u2_t7_h10 + u2_t7_h11 + u2_t7_h12 + u2_t7_h13 + u2_t7_h14 + u2_t7_h15 + u2_t7_h16 + u2_t7_h17 + u2_t7_h18 + u2_t7_h19 + u2_t7_h20 + u2_t7_h21 + u2_t7_h22 + u2_t7_h23 = 3;
0 <= u2_t8_h21 <= 1;
0 <= u2_t8_h22 <= 1;
0 <= u2_t8_h23 <= 1;
u2_t8_h21 + u2_t8_h22 + u2_t8_h23 = 2;
0 <= u2_t9_h13 <= 1;
0 <= u2_t9_h14 <= 1;
0 <= u2_t9_h15 <= 1;
0 <= u2_t9_h16 <= 1;
0 <= u2_t9_h17 <= 1;
u2_t9_h13 + u2_t9_h14 + u2_t9_h15 + u2_t9_h16 + u2_t9_h17 = 1;
0 <= u2_t10_h6 <= 1;
0 <= u2_t10_h7 <= 1;
0 <= u2_t10_h8 <= 1;
0 <= u2_t10_h9 <= 1;
0 <= u2_t10_h10 <= 1;
0 <= u2_t10_h11 <= 1;
u2_t10_h6 + u2_t10_h7 + u2_t10_h8 + u2_t10_h9 + u2_t10_h10 + u2_t10_h11 = 2;
